language ESSENCE' 1.0

letting jobs = 102
letting horizon = 816
letting resourcesRenew = 2
letting resourcesNonrenew = 2
letting resourceLimits = [47, 52, 604, 597]
letting successors = [[2, 3, 4, 5, 6, 7, 8, 9, 10, 11, 12, 13, 14, 17, 18, 19, 20, 21, 22, 24, 25, 26, 27, 28, 29, 30, 31, 33, 34, 39, 43, 45, 49, 57], [66, 63, 48, 41, 36, 23, 15], [99, 98, 97, 96, 75, 67, 66, 65, 63, 62, 55, 52, 51, 50, 48, 47, 40, 37], [100, 99, 77, 76, 75, 73, 67, 61, 59, 55, 52, 16], [101, 98, 95, 76, 75, 74, 66, 65, 56, 52, 50, 47, 41, 36, 32], [101, 98, 87, 76, 75, 69, 67, 64, 60, 51, 47, 44, 42, 41], [99, 98, 96, 95, 91, 75, 74, 69, 66, 65, 64, 62, 59, 58, 56, 47, 41], [101, 100, 99, 98, 86, 75, 71, 66, 65, 64, 56, 55, 37, 35], [97, 96, 95, 93, 90, 74, 73, 72, 69, 67, 66, 65, 64, 60, 58, 53, 52, 47], [100, 99, 98, 97, 96, 90, 75, 72, 70, 67, 64, 60, 55, 53, 52, 48], [99, 98, 97, 92, 75, 73, 69, 66, 65, 58, 56, 52, 47, 44, 38], [98, 97, 95, 82, 74, 72, 66, 65, 56, 54, 51, 37], [100, 99, 98, 97, 96, 90, 88, 86, 81, 76, 75, 74, 69, 65, 64, 59, 53, 48], [101, 100, 98, 95, 91, 74, 66, 65, 64, 58, 53, 46, 37], [95, 93, 76, 74, 65, 60, 56, 52, 32], [98, 97, 91, 90, 72, 71, 70, 69, 68, 66, 65, 64, 62, 53, 40], [99, 97, 95, 93, 90, 87, 74, 72, 70, 69, 66, 64, 56, 54, 52], [98, 97, 85, 83, 77, 76, 73, 72, 69, 68, 64, 62, 55, 44], [101, 99, 98, 97, 96, 95, 94, 90, 84, 83, 73, 71, 70, 68, 62, 51], [100, 98, 91, 90, 72, 69, 68, 55, 54, 40], [98, 96, 95, 90, 88, 87, 83, 75, 74, 70, 69, 64, 53, 52], [101, 96, 95, 94, 90, 88, 84, 74, 70, 69, 68, 59, 52], [99, 98, 90, 81, 75, 72, 71, 64, 60, 58, 53], [101, 99, 96, 95, 94, 91, 90, 87, 85, 84, 81, 73, 69, 68, 67, 60], [96, 91, 90, 89, 84, 74, 72, 70, 68, 66, 65, 62, 59], [96, 95, 88, 81, 72, 69, 64, 59, 53], [97, 96, 94, 91, 90, 89, 88, 85, 84, 79, 72, 70, 67, 64], [93, 87, 84, 83, 82, 73, 70, 69, 68, 51], [99, 98, 94, 92, 91, 89, 88, 81, 65, 62, 58], [99, 95, 93, 89, 87, 85, 83, 81, 72, 64, 56], [97, 95, 92, 90, 71, 70, 69, 68, 64, 59], [100, 96, 90, 87, 86, 85, 84, 73, 71, 70, 69, 64], [99, 92, 91, 89, 86, 81, 80, 78, 75, 71, 58], [92, 89, 88, 85, 84, 81, 71, 62, 59], [97, 93, 90, 83, 73, 48], [99, 96, 93, 91, 90, 84, 82, 70, 69, 64], [90, 85, 81, 73, 69, 68, 59], [95, 94, 91, 89, 88, 87, 85, 82, 81, 80, 79, 78], [91, 90, 87, 86, 84, 83, 82, 81, 80, 79, 68], [92, 89, 88, 81, 80, 78, 58], [97, 93, 92, 90, 85, 82, 80, 79, 78, 72], [97, 96, 94, 92, 90, 84, 82, 81, 79, 74], [99, 91, 89, 87, 85, 84, 83, 79, 64], [96, 95, 91, 90, 89, 88, 84, 79, 70], [99, 98, 94, 90, 85, 84, 82, 78, 70], [92, 90, 86, 83, 82, 80, 69, 68], [85, 84, 83, 79, 71, 70, 68], [95, 92, 91, 89, 84, 82, 79, 68], [94, 88, 87, 86, 83, 80, 79, 68], [86, 85, 84, 79, 70, 64], [100, 92, 91, 89, 88, 85, 79, 78], [91, 89, 86, 81, 80, 78, 71], [94, 89, 85, 84, 82, 80, 78], [96, 86, 85, 84, 83, 81, 79], [95, 94, 93, 88, 87, 81], [94, 88, 80, 79, 68], [93, 90, 86, 64], [87, 85, 83, 82, 79], [93, 87, 83, 79], [92, 88, 83, 78], [96, 64], [93, 86, 78], [82, 72], [80, 78], [83, 78], [88, 79], [83, 82], [78], [79], [81], [82], [86], [80], [80], [84], [92], [78], [102], [102], [102], [102], [102], [102], [102], [102], [102], [102], [102], [102], [102], [102], [102], [102], [102], [102], [102], [102], [102], [102], [102], [102], []]
letting durations = [[0], [6, 9, 9], [4, 6, 10], [4, 6, 7], [1, 3, 10], [5, 6, 8], [1, 4, 8], [5, 7, 8], [4, 4, 7], [4, 6, 7], [2, 4, 6], [2, 3, 10], [3, 6, 9], [4, 9, 10], [8, 9, 9], [3, 8, 10], [4, 5, 7], [2, 3, 4], [2, 3, 7], [3, 5, 10], [6, 8, 10], [3, 5, 6], [1, 6, 7], [1, 6, 10], [5, 8, 10], [3, 3, 7], [1, 4, 6], [5, 6, 9], [1, 2, 4], [3, 3, 7], [1, 3, 9], [3, 6, 10], [1, 1, 3], [1, 2, 6], [6, 6, 8], [2, 3, 7], [1, 2, 5], [3, 4, 10], [2, 9, 10], [4, 4, 8], [1, 1, 10], [5, 7, 8], [2, 4, 7], [3, 4, 9], [5, 7, 8], [4, 5, 10], [4, 5, 10], [2, 4, 10], [1, 4, 6], [4, 5, 10], [1, 6, 9], [2, 4, 9], [4, 9, 10], [1, 5, 5], [1, 2, 6], [2, 7, 8], [3, 7, 10], [2, 3, 7], [4, 5, 7], [7, 8, 9], [6, 8, 9], [5, 9, 10], [5, 7, 9], [4, 8, 10], [3, 10, 10], [4, 8, 10], [1, 4, 7], [4, 5, 6], [3, 7, 7], [1, 2, 5], [3, 5, 9], [1, 5, 8], [1, 4, 8], [5, 6, 7], [7, 9, 10], [1, 7, 9], [1, 2, 7], [2, 3, 6], [1, 4, 5], [3, 6, 9], [1, 3, 5], [2, 4, 8], [1, 2, 5], [1, 3, 9], [5, 6, 7], [7, 8, 10], [5, 7, 10], [3, 9, 10], [7, 8, 8], [1, 6, 7], [6, 9, 10], [4, 5, 9], [4, 7, 8], [2, 6, 8], [3, 6, 9], [8, 9, 10], [1, 7, 10], [6, 7, 9], [2, 3, 8], [5, 8, 9], [8, 9, 10], [0]]
letting resourceUsage = [[[0, 0, 0, 0]], [[0, 8, 6, 8], [0, 7, 5, 6], [5, 0, 5, 4]], [[0, 10, 8, 4], [9, 0, 8, 2], [0, 2, 7, 2]], [[0, 6, 3, 5], [4, 0, 2, 4], [4, 0, 2, 3]], [[0, 9, 8, 6], [0, 8, 5, 3], [5, 0, 4, 3]], [[0, 5, 5, 8], [5, 0, 5, 6], [1, 0, 3, 5]], [[5, 0, 7, 6], [0, 3, 5, 5], [0, 3, 4, 4]], [[3, 0, 9, 7], [0, 6, 9, 7], [2, 0, 9, 5]], [[0, 7, 7, 7], [4, 0, 6, 6], [3, 0, 5, 2]], [[0, 6, 5, 5], [0, 6, 5, 3], [0, 4, 1, 1]], [[4, 0, 8, 9], [2, 0, 5, 7], [1, 0, 5, 6]], [[9, 0, 8, 6], [9, 0, 6, 6], [0, 2, 4, 6]], [[0, 7, 1, 8], [6, 0, 1, 7], [0, 4, 1, 7]], [[0, 8, 3, 7], [8, 0, 3, 6], [8, 0, 2, 4]], [[9, 0, 4, 5], [0, 4, 3, 3], [9, 0, 2, 3]], [[0, 3, 10, 8], [9, 0, 10, 7], [0, 3, 10, 7]], [[0, 8, 9, 10], [3, 0, 9, 9], [0, 6, 9, 8]], [[5, 0, 2, 7], [4, 0, 2, 5], [0, 5, 2, 3]], [[0, 7, 3, 8], [0, 6, 2, 8], [0, 5, 2, 8]], [[0, 9, 6, 4], [0, 8, 6, 3], [0, 7, 6, 3]], [[6, 0, 10, 7], [3, 0, 9, 6], [2, 0, 9, 4]], [[0, 8, 2, 6], [0, 5, 2, 5], [0, 3, 2, 5]], [[0, 6, 9, 9], [3, 0, 8, 6], [3, 0, 7, 1]], [[0, 9, 7, 8], [7, 0, 7, 4], [7, 0, 3, 3]], [[7, 0, 5, 8], [0, 2, 4, 6], [0, 1, 2, 6]], [[4, 0, 8, 8], [0, 2, 6, 7], [2, 0, 4, 7]], [[7, 0, 2, 5], [7, 0, 2, 4], [0, 1, 1, 5]], [[0, 6, 7, 10], [0, 2, 5, 10], [8, 0, 5, 10]], [[8, 0, 4, 4], [0, 5, 3, 3], [7, 0, 3, 1]], [[9, 0, 9, 6], [0, 7, 6, 6], [5, 0, 2, 5]], [[0, 6, 10, 8], [0, 4, 6, 5], [3, 0, 6, 3]], [[0, 4, 8, 7], [0, 3, 4, 5], [0, 3, 3, 4]], [[6, 0, 9, 3], [0, 6, 7, 2], [0, 6, 4, 2]], [[0, 10, 6, 8], [6, 0, 6, 5], [4, 0, 5, 5]], [[0, 4, 5, 8], [7, 0, 4, 6], [0, 3, 3, 4]], [[8, 0, 6, 3], [7, 0, 4, 2], [0, 9, 4, 2]], [[8, 0, 8, 8], [6, 0, 8, 8], [0, 7, 7, 7]], [[0, 7, 3, 8], [0, 4, 3, 5], [0, 3, 3, 3]], [[0, 4, 10, 3], [0, 3, 7, 3], [3, 0, 4, 3]], [[5, 0, 8, 9], [0, 4, 6, 8], [5, 0, 1, 5]], [[0, 5, 8, 6], [2, 0, 7, 6], [2, 0, 7, 5]], [[3, 0, 9, 4], [3, 0, 8, 4], [0, 2, 8, 4]], [[0, 2, 6, 7], [0, 1, 6, 7], [0, 1, 4, 7]], [[6, 0, 9, 6], [4, 0, 8, 6], [0, 2, 6, 4]], [[4, 0, 9, 2], [3, 0, 8, 2], [1, 0, 6, 1]], [[0, 5, 8, 3], [0, 4, 5, 3], [5, 0, 3, 3]], [[6, 0, 4, 9], [6, 0, 3, 8], [0, 4, 3, 8]], [[0, 8, 9, 8], [0, 8, 8, 4], [0, 8, 6, 3]], [[0, 6, 10, 7], [0, 5, 7, 5], [5, 0, 5, 4]], [[0, 8, 8, 3], [0, 3, 8, 3], [0, 2, 8, 1]], [[0, 5, 6, 1], [5, 0, 5, 1], [0, 5, 5, 1]], [[0, 4, 6, 8], [0, 2, 6, 6], [3, 0, 3, 5]], [[6, 0, 4, 10], [3, 0, 2, 9], [2, 0, 2, 8]], [[0, 3, 6, 9], [3, 0, 5, 8], [0, 2, 3, 7]], [[0, 7, 7, 4], [0, 3, 6, 2], [2, 0, 3, 1]], [[0, 7, 4, 8], [5, 0, 2, 8], [0, 6, 2, 8]], [[2, 0, 10, 9], [2, 0, 9, 9], [2, 0, 8, 8]], [[5, 0, 8, 7], [4, 0, 8, 6], [4, 0, 8, 3]], [[9, 0, 3, 4], [0, 5, 3, 3], [8, 0, 2, 3]], [[6, 0, 10, 8], [0, 7, 6, 7], [0, 4, 3, 7]], [[0, 5, 4, 7], [0, 5, 2, 6], [0, 4, 1, 6]], [[0, 5, 5, 7], [7, 0, 5, 7], [6, 0, 4, 2]], [[0, 4, 5, 5], [0, 4, 5, 4], [6, 0, 4, 3]], [[0, 5, 9, 4], [0, 4, 9, 4], [0, 3, 9, 4]], [[7, 0, 7, 10], [0, 7, 4, 10], [5, 0, 4, 10]], [[0, 9, 8, 10], [0, 9, 8, 8], [4, 0, 8, 7]], [[0, 5, 7, 7], [3, 0, 7, 7], [0, 2, 6, 5]], [[0, 8, 4, 5], [0, 5, 3, 4], [2, 0, 2, 4]], [[0, 5, 7, 5], [7, 0, 7, 4], [0, 3, 6, 2]], [[3, 0, 8, 5], [2, 0, 8, 2], [1, 0, 8, 2]], [[0, 4, 8, 3], [0, 4, 5, 3], [0, 4, 4, 3]], [[10, 0, 9, 10], [8, 0, 7, 6], [0, 2, 5, 3]], [[2, 0, 7, 9], [1, 0, 4, 9], [0, 2, 1, 9]], [[9, 0, 6, 4], [8, 0, 5, 4], [8, 0, 4, 4]], [[4, 0, 9, 7], [3, 0, 6, 7], [0, 3, 1, 7]], [[8, 0, 7, 7], [0, 8, 7, 5], [0, 8, 6, 3]], [[0, 9, 3, 4], [6, 0, 3, 3], [0, 8, 3, 2]], [[0, 4, 1, 3], [2, 0, 1, 2], [0, 2, 1, 1]], [[0, 6, 8, 4], [4, 0, 5, 3], [2, 0, 4, 3]], [[6, 0, 6, 5], [0, 7, 4, 5], [0, 3, 3, 4]], [[6, 0, 5, 5], [5, 0, 5, 3], [5, 0, 5, 2]], [[5, 0, 7, 9], [0, 4, 7, 8], [4, 0, 6, 8]], [[0, 6, 5, 5], [4, 0, 3, 3], [2, 0, 2, 3]], [[0, 2, 7, 6], [4, 0, 6, 5], [0, 2, 5, 4]], [[0, 6, 8, 5], [0, 6, 8, 4], [5, 0, 8, 5]], [[0, 4, 7, 8], [0, 4, 3, 6], [0, 3, 2, 2]], [[0, 8, 8, 5], [6, 0, 5, 3], [0, 3, 3, 3]], [[0, 7, 7, 3], [0, 6, 7, 3], [4, 0, 5, 3]], [[3, 0, 3, 6], [2, 0, 3, 3], [0, 7, 3, 1]], [[7, 0, 5, 9], [0, 2, 4, 8], [6, 0, 4, 6]], [[3, 0, 5, 7], [0, 4, 5, 6], [2, 0, 5, 6]], [[2, 0, 8, 9], [0, 5, 6, 7], [1, 0, 3, 6]], [[0, 2, 9, 5], [8, 0, 9, 4], [8, 0, 9, 2]], [[6, 0, 4, 8], [5, 0, 3, 7], [5, 0, 2, 7]], [[0, 10, 7, 5], [5, 0, 6, 5], [0, 3, 6, 3]], [[8, 0, 9, 8], [5, 0, 9, 7], [2, 0, 9, 6]], [[0, 8, 7, 6], [0, 8, 7, 4], [0, 8, 7, 3]], [[5, 0, 10, 8], [0, 4, 6, 8], [0, 4, 5, 8]], [[7, 0, 7, 9], [0, 5, 5, 9], [7, 0, 4, 9]], [[8, 0, 7, 8], [8, 0, 3, 5], [0, 6, 3, 4]], [[0, 7, 4, 8], [10, 0, 4, 5], [10, 0, 4, 1]], [[0, 0, 0, 0]]]
